62
poly-dA 2-mer (62 atoms, ~206 AOs STO-3G)
O       4.589750     -1.152328     -1.276016
C       3.493798     -0.278091     -1.523910
C       2.794074      0.140444     -0.233061
O       1.766854      1.117113     -0.468706
C       0.724211      0.904422      0.513103
C       1.156666     -0.276624      1.379238
C       2.090275     -1.021939      0.456830
O       2.997894     -1.865023      1.140834
N      -0.537045      0.681412     -0.171878
C      -0.743305      0.462978     -1.507565
N      -2.016902      0.271806     -1.785718
C      -2.664810      0.392283     -0.573349
C      -4.017241      0.303718     -0.204095
N      -5.037475      0.037573     -1.108222
N      -4.346516      0.504282      1.092670
C      -3.355160      0.753712      1.975816
N      -2.028705      0.845191      1.744421
C      -1.761039      0.659799      0.441258
H       4.361125     -1.720271     -0.512967
H       2.794407     -0.776202     -2.204201
H       3.871224      0.603163     -2.053006
H       3.540211      0.579915      0.442708
H       0.611414      1.821991      1.101172
H       1.707900      0.079471      2.258959
H       0.339161     -0.902905      1.749184
H       1.518309     -1.622175     -0.261045
H       2.477260     -2.503649      1.662546
H       0.061860      0.454054     -2.232116
H      -5.934506      0.368731     -0.779095
H      -4.784624      0.238009     -2.069648
H      -3.669061      0.899141      3.005869
O       4.390507      1.765534      2.123984
C       2.990000      1.828622      1.876090
C       2.177902      1.755937      3.166939
O       0.772792      1.942294      2.931294
C       0.054293      1.157373      3.913103
C       1.098358      0.456078      4.779238
C       2.291749      0.401867      3.856830
O       3.521580      0.253282      4.540834
N      -0.835003      0.235607      3.228122
C      -0.873478     -0.062347      1.892435
N      -1.791472     -0.965610      1.614282
C      -2.386455     -1.248973      2.826651
C      -3.428537     -2.115562      3.195905
N      -4.097488     -2.930556      2.291778
N      -3.812815     -2.146845      4.492670
C      -3.157402     -1.362348      5.375816
N      -2.138048     -0.508669      5.144421
C      -1.812531     -0.501324      3.841258
H       4.539374      1.171676      2.887033
H       2.716963      1.014551      1.195799
H       2.777356      2.763417      1.346994
H       2.523225      2.550045      3.842708
H      -0.576295      1.833402      4.501172
H       1.335008      1.068172      5.658959
H       0.805101     -0.531112      5.149184
H       2.181828     -0.419928      3.138955
H       3.475753     -0.569398      5.062546
H      -0.216841      0.403698      1.167884
H      -5.017851     -3.189906      2.620905
H      -4.010740     -2.619778      1.330352
H      -3.496835     -1.429200      6.405869
